#===============================================================================
# Created using the Atomic Simulation Environment (ASE)

# Mon Feb 10 12:29:21 2025

#=======================================================
lattice_vector 12.3007153000000002 -0.0000101000000000 0.0000000000000000 
lattice_vector 6.1502964000000002 10.6526941999999991 0.0000000000000000 
lattice_vector 0.0000000000000000 0.0000000000000000 33.6199105500000002 
atom 6.1502959700000019 10.6524134600000000 5.0429865800000027 C
atom 8.6104390300000020 10.6524114399999998 5.0429865800000027 C
atom 11.0705820900000020 10.6524094200000015 5.0429865800000027 C
atom 13.5307251500000039 10.6524074000000013 5.0429865800000027 C
atom 15.9908682100000057 10.6524053800000011 5.0429865800000027 C
atom 1.2300588500000014 2.1302581000000007 5.0429865800000027 C
atom 3.6902019100000016 2.1302560800000010 5.0429865800000027 C
atom 6.1503449700000017 2.1302540600000008 5.0429865800000027 C
atom 8.6104880300000026 2.1302520400000007 5.0429865800000027 C
atom 11.0706310900000027 2.1302500200000010 5.0429865800000027 C
atom 2.4601181300000019 4.2607969400000014 5.0429865800000027 C
atom 4.9202611900000024 4.2607949200000013 5.0429865800000027 C
atom 7.3804042500000033 4.2607929000000011 5.0429865800000027 C
atom 9.8405473100000034 4.2607908800000009 5.0429865800000027 C
atom 12.3006903700000034 4.2607888600000017 5.0429865800000027 C
atom 3.6901774100000018 6.3913357800000004 5.0429865800000027 C
atom 6.1503204700000023 6.3913337600000011 5.0429865800000027 C
atom 8.6104635300000023 6.3913317400000009 5.0429865800000027 C
atom 11.0706065900000006 6.3913297200000008 5.0429865800000027 C
atom 13.5307496500000024 6.3913277000000006 5.0429865800000027 C
atom 4.9202366900000021 8.5218746200000020 5.0429865800000027 C
atom 7.3803797500000012 8.5218726000000018 5.0429865800000027 C
atom 9.8405228100000031 8.5218705800000016 5.0429865800000027 C
atom 12.3006658700000031 8.5218685600000015 5.0429865800000027 C
atom 14.7608089300000032 8.5218665400000013 5.0429865800000027 C
atom 6.1502959700000019 10.6524134600000000 11.7669686900000059 C
atom 8.6104390300000020 10.6524114399999998 11.7669686900000059 C
atom 11.0705820900000020 10.6524094200000015 11.7669686900000059 C
atom 13.5307251500000039 10.6524074000000013 11.7669686900000059 C
atom 15.9908682100000057 10.6524053800000011 11.7669686900000059 C
atom 1.2300588500000014 2.1302581000000007 11.7669686900000059 C
atom 3.6902019100000016 2.1302560800000010 11.7669686900000059 C
atom 6.1503449700000017 2.1302540600000008 11.7669686900000059 C
atom 8.6104880300000026 2.1302520400000007 11.7669686900000059 C
atom 11.0706310900000027 2.1302500200000010 11.7669686900000059 C
atom 2.4601181300000019 4.2607969400000014 11.7669686900000059 C
atom 4.9202611900000024 4.2607949200000013 11.7669686900000059 C
atom 7.3804042500000033 4.2607929000000011 11.7669686900000059 C
atom 9.8405473100000034 4.2607908800000009 11.7669686900000059 C
atom 12.3006903700000034 4.2607888600000017 11.7669686900000059 C
atom 3.6901774100000018 6.3913357800000004 11.7669686900000059 C
atom 6.1503204700000023 6.3913337600000011 11.7669686900000059 C
atom 8.6104635300000023 6.3913317400000009 11.7669686900000059 C
atom 11.0706065900000006 6.3913297200000008 11.7669686900000059 C
atom 13.5307496500000024 6.3913277000000006 11.7669686900000059 C
atom 4.9202366900000021 8.5218746200000020 11.7669686900000059 C
atom 7.3803797500000012 8.5218726000000018 11.7669686900000059 C
atom 9.8405228100000031 8.5218705800000016 11.7669686900000059 C
atom 12.3006658700000031 8.5218685600000015 11.7669686900000059 C
atom 14.7608089300000032 8.5218665400000013 11.7669686900000059 C
atom 6.1502959700000019 10.6524134600000000 18.4909508000000038 C
atom 8.6104390300000020 10.6524114399999998 18.4909508000000038 C
atom 11.0705820900000020 10.6524094200000015 18.4909508000000038 C
atom 13.5307251500000039 10.6524074000000013 18.4909508000000038 C
atom 15.9908682100000057 10.6524053800000011 18.4909508000000038 C
atom 1.2300588500000014 2.1302581000000007 18.4909508000000038 C
atom 3.6902019100000016 2.1302560800000010 18.4909508000000038 C
atom 6.1503449700000017 2.1302540600000008 18.4909508000000038 C
atom 8.6104880300000026 2.1302520400000007 18.4909508000000038 C
atom 11.0706310900000027 2.1302500200000010 18.4909508000000038 C
atom 2.4601181300000019 4.2607969400000014 18.4909508000000038 C
atom 4.9202611900000024 4.2607949200000013 18.4909508000000038 C
atom 7.3804042500000033 4.2607929000000011 18.4909508000000038 C
atom 9.8405473100000034 4.2607908800000009 18.4909508000000038 C
atom 12.3006903700000034 4.2607888600000017 18.4909508000000038 C
atom 3.6901774100000018 6.3913357800000004 18.4909508000000038 C
atom 6.1503204700000023 6.3913337600000011 18.4909508000000038 C
atom 8.6104635300000023 6.3913317400000009 18.4909508000000038 C
atom 11.0706065900000006 6.3913297200000008 18.4909508000000038 C
atom 13.5307496500000024 6.3913277000000006 18.4909508000000038 C
atom 4.9202366900000021 8.5218746200000020 18.4909508000000038 C
atom 7.3803797500000012 8.5218726000000018 18.4909508000000038 C
atom 9.8405228100000031 8.5218705800000016 18.4909508000000038 C
atom 12.3006658700000031 8.5218685600000015 18.4909508000000038 C
atom 14.7608089300000032 8.5218665400000013 18.4909508000000038 C
atom 6.1502959700000019 10.6524134600000000 25.2149329100000053 C
atom 8.6104390300000020 10.6524114399999998 25.2149329100000053 C
atom 11.0705820900000020 10.6524094200000015 25.2149329100000053 C
atom 13.5307251500000039 10.6524074000000013 25.2149329100000053 C
atom 15.9908682100000057 10.6524053800000011 25.2149329100000053 C
atom 1.2300588500000014 2.1302581000000007 25.2149329100000053 C
atom 3.6902019100000016 2.1302560800000010 25.2149329100000053 C
atom 6.1503449700000017 2.1302540600000008 25.2149329100000053 C
atom 8.6104880300000026 2.1302520400000007 25.2149329100000053 C
atom 11.0706310900000027 2.1302500200000010 25.2149329100000053 C
atom 2.4601181300000019 4.2607969400000014 25.2149329100000053 C
atom 4.9202611900000024 4.2607949200000013 25.2149329100000053 C
atom 7.3804042500000033 4.2607929000000011 25.2149329100000053 C
atom 9.8405473100000034 4.2607908800000009 25.2149329100000053 C
atom 12.3006903700000034 4.2607888600000017 25.2149329100000053 C
atom 3.6901774100000018 6.3913357800000004 25.2149329100000053 C
atom 6.1503204700000023 6.3913337600000011 25.2149329100000053 C
atom 8.6104635300000023 6.3913317400000009 25.2149329100000053 C
atom 11.0706065900000006 6.3913297200000008 25.2149329100000053 C
atom 13.5307496500000024 6.3913277000000006 25.2149329100000053 C
atom 4.9202366900000021 8.5218746200000020 25.2149329100000053 C
atom 7.3803797500000012 8.5218726000000018 25.2149329100000053 C
atom 9.8405228100000031 8.5218705800000016 25.2149329100000053 C
atom 12.3006658700000031 8.5218685600000015 25.2149329100000053 C
atom 14.7608089300000032 8.5218665400000013 25.2149329100000053 C
atom 6.1502959700000019 10.6524134600000000 31.9389150200000032 C
atom 8.6104390300000020 10.6524114399999998 31.9389150200000032 C
atom 11.0705820900000020 10.6524094200000015 31.9389150200000032 C
atom 13.5307251500000039 10.6524074000000013 31.9389150200000032 C
atom 15.9908682100000057 10.6524053800000011 31.9389150200000032 C
atom 1.2300588500000014 2.1302581000000007 31.9389150200000032 C
atom 3.6902019100000016 2.1302560800000010 31.9389150200000032 C
atom 6.1503449700000017 2.1302540600000008 31.9389150200000032 C
atom 8.6104880300000026 2.1302520400000007 31.9389150200000032 C
atom 11.0706310900000027 2.1302500200000010 31.9389150200000032 C
atom 2.4601181300000019 4.2607969400000014 31.9389150200000032 C
atom 4.9202611900000024 4.2607949200000013 31.9389150200000032 C
atom 7.3804042500000033 4.2607929000000011 31.9389150200000032 C
atom 9.8405473100000034 4.2607908800000009 31.9389150200000032 C
atom 12.3006903700000034 4.2607888600000017 31.9389150200000032 C
atom 3.6901774100000018 6.3913357800000004 31.9389150200000032 C
atom 6.1503204700000023 6.3913337600000011 31.9389150200000032 C
atom 8.6104635300000023 6.3913317400000009 31.9389150200000032 C
atom 11.0706065900000006 6.3913297200000008 31.9389150200000032 C
atom 13.5307496500000024 6.3913277000000006 31.9389150200000032 C
atom 4.9202366900000021 8.5218746200000020 31.9389150200000032 C
atom 7.3803797500000012 8.5218726000000018 31.9389150200000032 C
atom 9.8405228100000031 8.5218705800000016 31.9389150200000032 C
atom 12.3006658700000031 8.5218685600000015 31.9389150200000032 C
atom 14.7608089300000032 8.5218665400000013 31.9389150200000032 C
atom 1.2335032295944421 0.7099140071787329 5.0523777410989830 C
atom 3.6902102899999996 0.7099119899999994 5.0429865800000027 C
atom 6.1503533499999996 0.7099099699999993 5.0429865800000027 C
atom 8.6104964100000032 0.7099079499999993 5.0429865800000027 C
atom 11.0706394700000033 0.7099059299999994 5.0429865800000027 C
atom 2.4601265100000003 2.8404528499999993 5.0429865800000027 C
atom 4.9202695699999994 2.8404508299999991 5.0429865800000027 C
atom 7.3804126299999986 2.8404488099999994 5.0429865800000027 C
atom 9.8405556900000004 2.8404467899999992 5.0429865800000027 C
atom 12.3006987500000005 2.8404447699999991 5.0429865800000027 C
atom 3.6901857900000001 4.9709916899999991 5.0429865800000027 C
atom 6.1503288500000002 4.9709896699999989 5.0429865800000027 C
atom 8.6104719099999993 4.9709876499999996 5.0429865800000027 C
atom 11.0706149700000012 4.9709856299999995 5.0429865800000027 C
atom 13.5307580300000030 4.9709836099999993 5.0429865800000027 C
atom 4.9202450700000009 7.1015305299999998 5.0429865800000027 C
atom 7.3803881300000000 7.1015285099999996 5.0429865800000027 C
atom 9.8405311900000001 7.1015264899999995 5.0429865800000027 C
atom 12.3006742500000037 7.1015244699999993 5.0429865800000027 C
atom 14.7608173100000020 7.1015224500000000 5.0429865800000027 C
atom 6.1503043500000008 9.2320693699999996 5.0429865800000027 C
atom 8.6104474100000008 9.2320673499999995 5.0429865800000027 C
atom 11.0705904700000008 9.2320653300000011 5.0429865800000027 C
atom 13.5307335300000027 9.2320633100000009 5.0429865800000027 C
atom 15.9908765900000045 9.2320612900000008 5.0429865800000027 C
atom 1.2300672300000000 0.7099140099999993 11.7669686900000059 C
atom 3.6902102899999996 0.7099119899999994 11.7669686900000059 C
atom 6.1503533499999996 0.7099099699999993 11.7669686900000059 C
atom 8.6104964100000032 0.7099079499999993 11.7669686900000059 C
atom 11.0706394700000033 0.7099059299999994 11.7669686900000059 C
atom 2.4601265100000003 2.8404528499999993 11.7669686900000059 C
atom 4.9202695699999994 2.8404508299999991 11.7669686900000059 C
atom 7.3804126299999986 2.8404488099999994 11.7669686900000059 C
atom 9.8405556900000004 2.8404467899999992 11.7669686900000059 C
atom 12.3006987500000005 2.8404447699999991 11.7669686900000059 C
atom 3.6901857900000001 4.9709916899999991 11.7669686900000059 C
atom 6.1503288500000002 4.9709896699999989 11.7669686900000059 C
atom 8.6104719099999993 4.9709876499999996 11.7669686900000059 C
atom 11.0706149700000012 4.9709856299999995 11.7669686900000059 C
atom 13.5307580300000030 4.9709836099999993 11.7669686900000059 C
atom 4.9202450700000009 7.1015305299999998 11.7669686900000059 C
atom 7.3803881300000000 7.1015285099999996 11.7669686900000059 C
atom 9.8405311900000001 7.1015264899999995 11.7669686900000059 C
atom 12.3006742500000037 7.1015244699999993 11.7669686900000059 C
atom 14.7608173100000020 7.1015224500000000 11.7669686900000059 C
atom 6.1503043500000008 9.2320693699999996 11.7669686900000059 C
atom 8.6104474100000008 9.2320673499999995 11.7669686900000059 C
atom 11.0705904700000008 9.2320653300000011 11.7669686900000059 C
atom 13.5307335300000027 9.2320633100000009 11.7669686900000059 C
atom 15.9908765900000045 9.2320612900000008 11.7669686900000059 C
atom 1.2300672300000000 0.7099140099999993 18.4909508000000038 C
atom 3.6902102899999996 0.7099119899999994 18.4909508000000038 C
atom 6.1503533499999996 0.7099099699999993 18.4909508000000038 C
atom 8.6104964100000032 0.7099079499999993 18.4909508000000038 C
atom 11.0706394700000033 0.7099059299999994 18.4909508000000038 C
atom 2.4601265100000003 2.8404528499999993 18.4909508000000038 C
atom 4.9202695699999994 2.8404508299999991 18.4909508000000038 C
atom 7.3804126299999986 2.8404488099999994 18.4909508000000038 C
atom 9.8405556900000004 2.8404467899999992 18.4909508000000038 C
atom 12.3006987500000005 2.8404447699999991 18.4909508000000038 C
atom 3.6901857900000001 4.9709916899999991 18.4909508000000038 C
atom 6.1503288500000002 4.9709896699999989 18.4909508000000038 C
atom 8.6104719099999993 4.9709876499999996 18.4909508000000038 C
atom 11.0706149700000012 4.9709856299999995 18.4909508000000038 C
atom 13.5307580300000030 4.9709836099999993 18.4909508000000038 C
atom 4.9202450700000009 7.1015305299999998 18.4909508000000038 C
atom 7.3803881300000000 7.1015285099999996 18.4909508000000038 C
atom 9.8405311900000001 7.1015264899999995 18.4909508000000038 C
atom 12.3006742500000037 7.1015244699999993 18.4909508000000038 C
atom 14.7608173100000020 7.1015224500000000 18.4909508000000038 C
atom 6.1503043500000008 9.2320693699999996 18.4909508000000038 C
atom 8.6104474100000008 9.2320673499999995 18.4909508000000038 C
atom 11.0705904700000008 9.2320653300000011 18.4909508000000038 C
atom 13.5307335300000027 9.2320633100000009 18.4909508000000038 C
atom 15.9908765900000045 9.2320612900000008 18.4909508000000038 C
atom 1.2300672300000000 0.7099140099999993 25.2149329100000053 C
atom 3.6902102899999996 0.7099119899999994 25.2149329100000053 C
atom 6.1503533499999996 0.7099099699999993 25.2149329100000053 C
atom 8.6104964100000032 0.7099079499999993 25.2149329100000053 C
atom 11.0706394700000033 0.7099059299999994 25.2149329100000053 C
atom 2.4601265100000003 2.8404528499999993 25.2149329100000053 C
atom 4.9202695699999994 2.8404508299999991 25.2149329100000053 C
atom 7.3804126299999986 2.8404488099999994 25.2149329100000053 C
atom 9.8405556900000004 2.8404467899999992 25.2149329100000053 C
atom 12.3006987500000005 2.8404447699999991 25.2149329100000053 C
atom 3.6901857900000001 4.9709916899999991 25.2149329100000053 C
atom 6.1503288500000002 4.9709896699999989 25.2149329100000053 C
atom 8.6104719099999993 4.9709876499999996 25.2149329100000053 C
atom 11.0706149700000012 4.9709856299999995 25.2149329100000053 C
atom 13.5307580300000030 4.9709836099999993 25.2149329100000053 C
atom 4.9202450700000009 7.1015305299999998 25.2149329100000053 C
atom 7.3803881300000000 7.1015285099999996 25.2149329100000053 C
atom 9.8405311900000001 7.1015264899999995 25.2149329100000053 C
atom 12.3006742500000037 7.1015244699999993 25.2149329100000053 C
atom 14.7608173100000020 7.1015224500000000 25.2149329100000053 C
atom 6.1503043500000008 9.2320693699999996 25.2149329100000053 C
atom 8.6104474100000008 9.2320673499999995 25.2149329100000053 C
atom 11.0705904700000008 9.2320653300000011 25.2149329100000053 C
atom 13.5307335300000027 9.2320633100000009 25.2149329100000053 C
atom 15.9908765900000045 9.2320612900000008 25.2149329100000053 C
atom 1.2300672300000000 0.7099140099999993 31.9389150200000032 C
atom 3.6902102899999996 0.7099119899999994 31.9389150200000032 C
atom 6.1503533499999996 0.7099099699999993 31.9389150200000032 C
atom 8.6104964100000032 0.7099079499999993 31.9389150200000032 C
atom 11.0706394700000033 0.7099059299999994 31.9389150200000032 C
atom 2.4601265100000003 2.8404528499999993 31.9389150200000032 C
atom 4.9202695699999994 2.8404508299999991 31.9389150200000032 C
atom 7.3804126299999986 2.8404488099999994 31.9389150200000032 C
atom 9.8405556900000004 2.8404467899999992 31.9389150200000032 C
atom 12.3006987500000005 2.8404447699999991 31.9389150200000032 C
atom 3.6901857900000001 4.9709916899999991 31.9389150200000032 C
atom 6.1503288500000002 4.9709896699999989 31.9389150200000032 C
atom 8.6104719099999993 4.9709876499999996 31.9389150200000032 C
atom 11.0706149700000012 4.9709856299999995 31.9389150200000032 C
atom 13.5307580300000030 4.9709836099999993 31.9389150200000032 C
atom 4.9202450700000009 7.1015305299999998 31.9389150200000032 C
atom 7.3803881300000000 7.1015285099999996 31.9389150200000032 C
atom 9.8405311900000001 7.1015264899999995 31.9389150200000032 C
atom 12.3006742500000037 7.1015244699999993 31.9389150200000032 C
atom 14.7608173100000020 7.1015224500000000 31.9389150200000032 C
atom 6.1503043500000008 9.2320693699999996 31.9389150200000032 C
atom 8.6104474100000008 9.2320673499999995 31.9389150200000032 C
atom 11.0705904700000008 9.2320653300000011 31.9389150200000032 C
atom 13.5307335300000027 9.2320633100000009 31.9389150200000032 C
atom 15.9908765900000045 9.2320612900000008 31.9389150200000032 C
atom 3.6902027700000009 2.1308175600000010 1.6809955299999966 C
atom 6.1503458300000009 2.1308155400000013 1.6809955299999966 C
atom 8.6104888899999974 2.1308135200000011 1.6809955299999966 C
atom 11.0706319500000010 2.1308115000000010 1.6809955299999966 C
atom 13.5307750100000010 2.1308094800000013 1.6809955299999966 C
atom 4.9202620500000007 4.2613564000000013 1.6809955299999966 C
atom 7.3804051100000008 4.2613543800000011 1.6809955299999966 C
atom 9.8405481700000017 4.2613523600000009 1.6809955299999966 C
atom 12.3006912300000035 4.2613503400000017 1.6809955299999966 C
atom 14.7608342900000018 4.2613483200000015 1.6809955299999966 C
atom 6.1503213300000006 6.3918952400000011 1.6809955299999966 C
atom 8.6104643900000006 6.3918932200000009 1.6809955299999966 C
atom 11.0706074500000007 6.3918912000000017 1.6809955299999966 C
atom 13.5307505100000007 6.3918891800000015 1.6809955299999966 C
atom 15.9908935700000008 6.3918871600000013 1.6809955299999966 C
atom 7.3803806100000013 8.5224340800000018 1.6809955299999966 C
atom 9.8405236700000014 8.5224320600000016 1.6809955299999966 C
atom 12.3006667300000014 8.5224300400000015 1.6809955299999966 C
atom 14.7608097900000033 8.5224280200000013 1.6809955299999966 C
atom 17.2209528500000033 8.5224260000000012 1.6809955299999966 C
atom 2.4601434900000005 0.0002787200000021 1.6809955299999966 C
atom 4.9202865500000010 0.0002767000000021 1.6809955299999966 C
atom 7.3804296100000002 0.0002746800000021 1.6809955299999966 C
atom 9.8405726700000038 0.0002726600000021 1.6809955299999966 C
atom 12.3007157300000021 0.0002706400000021 1.6809955299999966 C
atom 3.6902027700000009 2.1308175600000010 8.4049776400000002 C
atom 6.1503458300000009 2.1308155400000013 8.4049776400000002 C
atom 8.6104888899999974 2.1308135200000011 8.4049776400000002 C
atom 11.0706319500000010 2.1308115000000010 8.4049776400000002 C
atom 13.5307750100000010 2.1308094800000013 8.4049776400000002 C
atom 4.9202620500000007 4.2613564000000013 8.4049776400000002 C
atom 7.3804051100000008 4.2613543800000011 8.4049776400000002 C
atom 9.8405481700000017 4.2613523600000009 8.4049776400000002 C
atom 12.3006912300000035 4.2613503400000017 8.4049776400000002 C
atom 14.7608342900000018 4.2613483200000015 8.4049776400000002 C
atom 6.1503213300000006 6.3918952400000011 8.4049776400000002 C
atom 8.6104643900000006 6.3918932200000009 8.4049776400000002 C
atom 11.0706074500000007 6.3918912000000017 8.4049776400000002 C
atom 13.5307505100000007 6.3918891800000015 8.4049776400000002 C
atom 15.9908935700000008 6.3918871600000013 8.4049776400000002 C
atom 7.3803806100000013 8.5224340800000018 8.4049776400000002 C
atom 9.8405236700000014 8.5224320600000016 8.4049776400000002 C
atom 12.3006667300000014 8.5224300400000015 8.4049776400000002 C
atom 14.7608097900000033 8.5224280200000013 8.4049776400000002 C
atom 17.2209528500000033 8.5224260000000012 8.4049776400000002 C
atom 2.4601434900000005 0.0002787200000021 8.4049776400000002 C
atom 4.9202865500000010 0.0002767000000021 8.4049776400000002 C
atom 7.3804296100000002 0.0002746800000021 8.4049776400000002 C
atom 9.8405726700000038 0.0002726600000021 8.4049776400000002 C
atom 12.3007157300000021 0.0002706400000021 8.4049776400000002 C
atom 3.6902027700000009 2.1308175600000010 15.1289597499999982 C
atom 6.1503458300000009 2.1308155400000013 15.1289597499999982 C
atom 8.6104888899999974 2.1308135200000011 15.1289597499999982 C
atom 11.0706319500000010 2.1308115000000010 15.1289597499999982 C
atom 13.5307750100000010 2.1308094800000013 15.1289597499999982 C
atom 4.9202620500000007 4.2613564000000013 15.1289597499999982 C
atom 7.3804051100000008 4.2613543800000011 15.1289597499999982 C
atom 9.8405481700000017 4.2613523600000009 15.1289597499999982 C
atom 12.3006912300000035 4.2613503400000017 15.1289597499999982 C
atom 14.7608342900000018 4.2613483200000015 15.1289597499999982 C
atom 6.1503213300000006 6.3918952400000011 15.1289597499999982 C
atom 8.6104643900000006 6.3918932200000009 15.1289597499999982 C
atom 11.0706074500000007 6.3918912000000017 15.1289597499999982 C
atom 13.5307505100000007 6.3918891800000015 15.1289597499999982 C
atom 15.9908935700000008 6.3918871600000013 15.1289597499999982 C
atom 7.3803806100000013 8.5224340800000018 15.1289597499999982 C
atom 9.8405236700000014 8.5224320600000016 15.1289597499999982 C
atom 12.3006667300000014 8.5224300400000015 15.1289597499999982 C
atom 14.7608097900000033 8.5224280200000013 15.1289597499999982 C
atom 17.2209528500000033 8.5224260000000012 15.1289597499999982 C
atom 2.4601434900000005 0.0002787200000021 15.1289597499999982 C
atom 4.9202865500000010 0.0002767000000021 15.1289597499999982 C
atom 7.3804296100000002 0.0002746800000021 15.1289597499999982 C
atom 9.8405726700000038 0.0002726600000021 15.1289597499999982 C
atom 12.3007157300000021 0.0002706400000021 15.1289597499999982 C
atom 3.6902027700000009 2.1308175600000010 21.8529418599999978 C
atom 6.1503458300000009 2.1308155400000013 21.8529418599999978 C
atom 8.6104888899999974 2.1308135200000011 21.8529418599999978 C
atom 11.0706319500000010 2.1308115000000010 21.8529418599999978 C
atom 13.5307750100000010 2.1308094800000013 21.8529418599999978 C
atom 4.9202620500000007 4.2613564000000013 21.8529418599999978 C
atom 7.3804051100000008 4.2613543800000011 21.8529418599999978 C
atom 9.8405481700000017 4.2613523600000009 21.8529418599999978 C
atom 12.3006912300000035 4.2613503400000017 21.8529418599999978 C
atom 14.7608342900000018 4.2613483200000015 21.8529418599999978 C
atom 6.1503213300000006 6.3918952400000011 21.8529418599999978 C
atom 8.6104643900000006 6.3918932200000009 21.8529418599999978 C
atom 11.0706074500000007 6.3918912000000017 21.8529418599999978 C
atom 13.5307505100000007 6.3918891800000015 21.8529418599999978 C
atom 15.9908935700000008 6.3918871600000013 21.8529418599999978 C
atom 7.3803806100000013 8.5224340800000018 21.8529418599999978 C
atom 9.8405236700000014 8.5224320600000016 21.8529418599999978 C
atom 12.3006667300000014 8.5224300400000015 21.8529418599999978 C
atom 14.7608097900000033 8.5224280200000013 21.8529418599999978 C
atom 17.2209528500000033 8.5224260000000012 21.8529418599999978 C
atom 2.4601434900000005 0.0002787200000021 21.8529418599999978 C
atom 4.9202865500000010 0.0002767000000021 21.8529418599999978 C
atom 7.3804296100000002 0.0002746800000021 21.8529418599999978 C
atom 9.8405726700000038 0.0002726600000021 21.8529418599999978 C
atom 12.3007157300000021 0.0002706400000021 21.8529418599999978 C
atom 3.6902027700000009 2.1308175600000010 28.5769239699999957 C
atom 6.1503458300000009 2.1308155400000013 28.5769239699999957 C
atom 8.6104888899999974 2.1308135200000011 28.5769239699999957 C
atom 11.0706319500000010 2.1308115000000010 28.5769239699999957 C
atom 13.5307750100000010 2.1308094800000013 28.5769239699999957 C
atom 4.9202620500000007 4.2613564000000013 28.5769239699999957 C
atom 7.3804051100000008 4.2613543800000011 28.5769239699999957 C
atom 9.8405481700000017 4.2613523600000009 28.5769239699999957 C
atom 12.3006912300000035 4.2613503400000017 28.5769239699999957 C
atom 14.7608342900000018 4.2613483200000015 28.5769239699999957 C
atom 6.1503213300000006 6.3918952400000011 28.5769239699999957 C
atom 8.6104643900000006 6.3918932200000009 28.5769239699999957 C
atom 11.0706074500000007 6.3918912000000017 28.5769239699999957 C
atom 13.5307505100000007 6.3918891800000015 28.5769239699999957 C
atom 15.9908935700000008 6.3918871600000013 28.5769239699999957 C
atom 7.3803806100000013 8.5224340800000018 28.5769239699999957 C
atom 9.8405236700000014 8.5224320600000016 28.5769239699999957 C
atom 12.3006667300000014 8.5224300400000015 28.5769239699999957 C
atom 14.7608097900000033 8.5224280200000013 28.5769239699999957 C
atom 17.2209528500000033 8.5224260000000012 28.5769239699999957 C
atom 2.4601434900000005 0.0002787200000021 28.5769239699999957 C
atom 4.9202865500000010 0.0002767000000021 28.5769239699999957 C
atom 7.3804296100000002 0.0002746800000021 28.5769239699999957 C
atom 9.8405726700000038 0.0002726600000021 28.5769239699999957 C
atom 12.3007157300000021 0.0002706400000021 28.5769239699999957 C
atom 2.4601351000000000 1.4206228200000002 1.6809955299999966 C
atom 4.9202781600000005 1.4206208000000002 1.6809955299999966 C
atom 7.3804212200000014 1.4206187800000001 1.6809955299999966 C
atom 9.8405642799999988 1.4206167600000001 1.6809955299999966 C
atom 12.3007073400000024 1.4206147400000002 1.6809955299999966 C
atom 3.6901943799999994 3.5511616600000000 1.6809955299999966 C
atom 6.1503374400000004 3.5511596399999998 1.6809955299999966 C
atom 8.6104804999999995 3.5511576199999997 1.6809955299999966 C
atom 11.0706235599999978 3.5511556000000000 1.6809955299999966 C
atom 13.5307666199999979 3.5511535799999998 1.6809955299999966 C
atom 4.9202536600000002 5.6817004999999998 1.6809955299999966 C
atom 7.3803967199999994 5.6816984799999997 1.6809955299999966 C
atom 9.8405397800000003 5.6816964599999995 1.6809955299999966 C
atom 12.3006828399999986 5.6816944399999993 1.6809955299999966 C
atom 14.7608259000000004 5.6816924200000001 1.6809955299999966 C
atom 6.1503129400000009 7.8122393400000005 1.6809955299999966 C
atom 8.6104560000000010 7.8122373200000004 1.6809955299999966 C
atom 11.0705990600000010 7.8122353000000002 1.6809955299999966 C
atom 13.5307421199999993 7.8122332800000001 1.6809955299999966 C
atom 15.9908851800000029 7.8122312599999999 1.6809955299999966 C
atom 7.3803722200000008 9.9427781800000012 1.6809955299999966 C
atom 9.8405152800000000 9.9427761600000011 1.6809955299999966 C
atom 12.3006583400000018 9.9427741400000009 1.6809955299999966 C
atom 14.7608014000000001 9.9427721200000008 1.6809955299999966 C
atom 17.2209444600000019 9.9427701000000006 1.6809955299999966 C
atom 2.4601351000000000 1.4206228200000002 8.4049776400000002 C
atom 4.9202781600000005 1.4206208000000002 8.4049776400000002 C
atom 7.3804212200000014 1.4206187800000001 8.4049776400000002 C
atom 9.8405642799999988 1.4206167600000001 8.4049776400000002 C
atom 12.3007073400000024 1.4206147400000002 8.4049776400000002 C
atom 3.6901943799999994 3.5511616600000000 8.4049776400000002 C
atom 6.1503374400000004 3.5511596399999998 8.4049776400000002 C
atom 8.6104804999999995 3.5511576199999997 8.4049776400000002 C
atom 11.0706235599999978 3.5511556000000000 8.4049776400000002 C
atom 13.5307666199999979 3.5511535799999998 8.4049776400000002 C
atom 4.9202536600000002 5.6817004999999998 8.4049776400000002 C
atom 7.3803967199999994 5.6816984799999997 8.4049776400000002 C
atom 9.8405397800000003 5.6816964599999995 8.4049776400000002 C
atom 12.3006828399999986 5.6816944399999993 8.4049776400000002 C
atom 14.7608259000000004 5.6816924200000001 8.4049776400000002 C
atom 6.1503129400000009 7.8122393400000005 8.4049776400000002 C
atom 8.6104560000000010 7.8122373200000004 8.4049776400000002 C
atom 11.0705990600000010 7.8122353000000002 8.4049776400000002 C
atom 13.5307421199999993 7.8122332800000001 8.4049776400000002 C
atom 15.9908851800000029 7.8122312599999999 8.4049776400000002 C
atom 7.3803722200000008 9.9427781800000012 8.4049776400000002 C
atom 9.8405152800000000 9.9427761600000011 8.4049776400000002 C
atom 12.3006583400000018 9.9427741400000009 8.4049776400000002 C
atom 14.7608014000000001 9.9427721200000008 8.4049776400000002 C
atom 17.2209444600000019 9.9427701000000006 8.4049776400000002 C
atom 2.4601351000000000 1.4206228200000002 15.1289597499999982 C
atom 4.9202781600000005 1.4206208000000002 15.1289597499999982 C
atom 7.3804212200000014 1.4206187800000001 15.1289597499999982 C
atom 9.8405642799999988 1.4206167600000001 15.1289597499999982 C
atom 12.3007073400000024 1.4206147400000002 15.1289597499999982 C
atom 3.6901943799999994 3.5511616600000000 15.1289597499999982 C
atom 6.1503374400000004 3.5511596399999998 15.1289597499999982 C
atom 8.6104804999999995 3.5511576199999997 15.1289597499999982 C
atom 11.0706235599999978 3.5511556000000000 15.1289597499999982 C
atom 13.5307666199999979 3.5511535799999998 15.1289597499999982 C
atom 4.9202536600000002 5.6817004999999998 15.1289597499999982 C
atom 7.3803967199999994 5.6816984799999997 15.1289597499999982 C
atom 9.8405397800000003 5.6816964599999995 15.1289597499999982 C
atom 12.3006828399999986 5.6816944399999993 15.1289597499999982 C
atom 14.7608259000000004 5.6816924200000001 15.1289597499999982 C
atom 6.1503129400000009 7.8122393400000005 15.1289597499999982 C
atom 8.6104560000000010 7.8122373200000004 15.1289597499999982 C
atom 11.0705990600000010 7.8122353000000002 15.1289597499999982 C
atom 13.5307421199999993 7.8122332800000001 15.1289597499999982 C
atom 15.9908851800000029 7.8122312599999999 15.1289597499999982 C
atom 7.3803722200000008 9.9427781800000012 15.1289597499999982 C
atom 9.8405152800000000 9.9427761600000011 15.1289597499999982 C
atom 12.3006583400000018 9.9427741400000009 15.1289597499999982 C
atom 14.7608014000000001 9.9427721200000008 15.1289597499999982 C
atom 17.2209444600000019 9.9427701000000006 15.1289597499999982 C
atom 2.4601351000000000 1.4206228200000002 21.8529418599999978 C
atom 4.9202781600000005 1.4206208000000002 21.8529418599999978 C
atom 7.3804212200000014 1.4206187800000001 21.8529418599999978 C