lattice_vector 2.4595000000000000 0.0000000000000000 0.0000000000000000
lattice_vector 1.2297500000000000 2.1299900000000000 0.0000000000000000
lattice_vector 0.0000000000000000 0.0000000000000000 6.6000000000000000
atom 0.0000000 0.0000000 4.9500000 C
atom 1.2297500 0.7099965 4.9500000 C
atom 3.6892500 2.1299900 1.6500000 C
atom 2.4595000 1.4199935 1.6500000 C
