# 
# This is the geometry file that corresponds to the current relaxation step.
# If you do not want this file to be written, set the "write_restart_geometry" flag to .false.
#  aims_uuid : C5A821CA-092A-4608-ABEA-9C4379755165                                                                        
# 
lattice_vector      2.46014306     -0.00000202      0.00000000
lattice_vector      1.23005928      2.13053884     -0.00000000
lattice_vector     -0.00000000     -0.00000000      6.72398211
atom      -0.00000043     -0.00028074      5.04298658 C
atom       1.23006723      0.70991401      5.04298658 C
atom       3.69020277      2.13081756      1.68099553 C
atom       2.46013510      1.42062282      1.68099553 C
# 
# What follows is the current estimated Hessian matrix constructed by the BFGS algorithm.
# This is NOT the true Hessian matrix of the system.
# If you do not want this information here, switch it off using the "hessian_to_restart_geometry" keyword.
# 
trust_radius             0.2000000030
hessian_file
