#===============================================================================
# Created using the Atomic Simulation Environment (ASE)

# Sun Feb  2 20:16:57 2025

#=======================================================
lattice_vector 7.3804291800000001 -0.0000060600000000 0.0000000000000000 
lattice_vector 3.6901778400000005 6.3916165199999995 0.0000000000000000 
lattice_vector 0.0000000000000000 0.0000000000000000 20.1719463299999973 
atom 3.6851774340621386 6.3826755120699188 5.0429865800000018 C
atom 6.1503204700000014 6.3913337599999993 5.0429865800000018 C
atom 8.6104635300000005 6.3913317399999992 5.0429865800000018 C
atom 1.2300588500000016 2.1302581000000003 5.0429865800000018 C
atom 3.6902019100000012 2.1302560800000006 5.0429865800000018 C
atom 6.1503449700000008 2.1302540600000008 5.0429865800000018 C
atom 2.4601181300000015 4.2607969399999996 5.0429865800000018 C
atom 4.9202611900000015 4.2607949199999995 5.0429865800000018 C
atom 7.3804042500000007 4.2607928999999993 5.0429865800000018 C
atom 3.6901774100000022 6.3913357799999995 11.7669686900000006 C
atom 6.1503204700000014 6.3913337599999993 11.7669686900000006 C
atom 8.6104635300000005 6.3913317399999992 11.7669686900000006 C
atom 1.2300588500000016 2.1302581000000003 11.7669686900000006 C
atom 3.6902019100000012 2.1302560800000006 11.7669686900000006 C
atom 6.1503449700000008 2.1302540600000008 11.7669686900000006 C
atom 2.4601181300000015 4.2607969399999996 11.7669686900000006 C
atom 4.9202611900000015 4.2607949199999995 11.7669686900000006 C
atom 7.3804042500000007 4.2607928999999993 11.7669686900000006 C
atom 3.6901774100000022 6.3913357799999995 18.4909508000000002 C
atom 6.1503204700000014 6.3913337599999993 18.4909508000000002 C
atom 8.6104635300000005 6.3913317399999992 18.4909508000000002 C
atom 1.2300588500000016 2.1302581000000003 18.4909508000000002 C
atom 3.6902019100000012 2.1302560800000006 18.4909508000000002 C
atom 6.1503449700000008 2.1302540600000008 18.4909508000000002 C
atom 2.4601181300000015 4.2607969399999996 18.4909508000000002 C
atom 4.9202611900000015 4.2607949199999995 18.4909508000000002 C
atom 7.3804042500000007 4.2607928999999993 18.4909508000000002 C
atom 1.2300672300000000 0.7099140099999992 5.0429865800000018 C
atom 3.6902102899999996 0.7099119899999993 5.0429865800000018 C
atom 6.1503533499999987 0.7099099699999992 5.0429865800000018 C
atom 2.4601265100000003 2.8404528499999993 5.0429865800000018 C
atom 4.9202695699999994 2.8404508299999986 5.0429865800000018 C
atom 7.3804126300000004 2.8404488099999985 5.0429865800000018 C
atom 3.6901857900000006 4.9709916899999991 5.0429865800000018 C
atom 6.1503288499999993 4.9709896699999980 5.0429865800000018 C
atom 8.6104719099999993 4.9709876499999979 5.0429865800000018 C
atom 1.2300672300000000 0.7099140099999992 11.7669686900000006 C
atom 3.6902102899999996 0.7099119899999993 11.7669686900000006 C
atom 6.1503533499999987 0.7099099699999992 11.7669686900000006 C
atom 2.4601265100000003 2.8404528499999993 11.7669686900000006 C
atom 4.9202695699999994 2.8404508299999986 11.7669686900000006 C
atom 7.3804126300000004 2.8404488099999985 11.7669686900000006 C
atom 3.6901857900000006 4.9709916899999991 11.7669686900000006 C
atom 6.1503288499999993 4.9709896699999980 11.7669686900000006 C
atom 8.6104719099999993 4.9709876499999979 11.7669686900000006 C
atom 1.2300672300000000 0.7099140099999992 18.4909508000000002 C
atom 3.6902102899999996 0.7099119899999993 18.4909508000000002 C
atom 6.1503533499999987 0.7099099699999992 18.4909508000000002 C
atom 2.4601265100000003 2.8404528499999993 18.4909508000000002 C
atom 4.9202695699999994 2.8404508299999986 18.4909508000000002 C
atom 7.3804126300000004 2.8404488099999985 18.4909508000000002 C
atom 3.6901857900000006 4.9709916899999991 18.4909508000000002 C
atom 6.1503288499999993 4.9709896699999980 18.4909508000000002 C
atom 8.6104719099999993 4.9709876499999979 18.4909508000000002 C
atom 3.6902027700000004 2.1308175600000010 1.6809955299999961 C
atom 6.1503458300000009 2.1308155400000004 1.6809955299999961 C
atom 8.6104888899999974 2.1308135200000007 1.6809955299999961 C
atom 4.9202620500000007 4.2613564000000004 1.6809955299999961 C
atom 7.3804051100000008 4.2613543800000002 1.6809955299999961 C
atom 9.8405481700000017 4.2613523600000009 1.6809955299999961 C
atom 2.4601434899999992 0.0002787200000011 1.6809955299999961 C
atom 4.9202865500000010 0.0002767000000011 1.6809955299999961 C
atom 7.3804296100000002 0.0002746800000011 1.6809955299999961 C
atom 3.6902027700000004 2.1308175600000010 8.4049776399999949 C
atom 6.1503458300000009 2.1308155400000004 8.4049776399999949 C
atom 8.6104888899999974 2.1308135200000007 8.4049776399999949 C
atom 4.9202620500000007 4.2613564000000004 8.4049776399999949 C
atom 7.3804051100000008 4.2613543800000002 8.4049776399999949 C
atom 9.8405481700000017 4.2613523600000009 8.4049776399999949 C
atom 2.4601434899999992 0.0002787200000011 8.4049776399999949 C
atom 4.9202865500000010 0.0002767000000011 8.4049776399999949 C
atom 7.3804296100000002 0.0002746800000011 8.4049776399999949 C
atom 3.6902027700000004 2.1308175600000010 15.1289597499999946 C
atom 6.1503458300000009 2.1308155400000004 15.1289597499999946 C
atom 8.6104888899999974 2.1308135200000007 15.1289597499999946 C
atom 4.9202620500000007 4.2613564000000004 15.1289597499999946 C
atom 7.3804051100000008 4.2613543800000002 15.1289597499999946 C
atom 9.8405481700000017 4.2613523600000009 15.1289597499999946 C
atom 2.4601434899999992 0.0002787200000011 15.1289597499999946 C
atom 4.9202865500000010 0.0002767000000011 15.1289597499999946 C
atom 7.3804296100000002 0.0002746800000011 15.1289597499999946 C
atom 2.4601351000000005 1.4206228200000000 1.6809955299999961 C
atom 4.9202781600000014 1.4206207999999998 1.6809955299999961 C
atom 7.3804212199999997 1.4206187799999999 1.6809955299999961 C
atom 3.6901943799999994 3.5511616599999987 1.6809955299999961 C
atom 6.1503374400000013 3.5511596399999994 1.6809955299999961 C
atom 8.6104804999999995 3.5511576199999983 1.6809955299999961 C
atom 4.9202536600000011 5.6817004999999989 1.6809955299999961 C
atom 7.3803967200000011 5.6816984799999997 1.6809955299999961 C
atom 9.8405397800000003 5.6816964599999986 1.6809955299999961 C
atom 2.4601351000000005 1.4206228200000000 8.4049776399999949 C
atom 4.9202781600000014 1.4206207999999998 8.4049776399999949 C
atom 7.3804212199999997 1.4206187799999999 8.4049776399999949 C
atom 3.6901943799999994 3.5511616599999987 8.4049776399999949 C
atom 6.1503374400000013 3.5511596399999994 8.4049776399999949 C
atom 8.6104804999999995 3.5511576199999983 8.4049776399999949 C
atom 4.9202536600000011 5.6817004999999989 8.4049776399999949 C
atom 7.3803967200000011 5.6816984799999997 8.4049776399999949 C
atom 9.8405397800000003 5.6816964599999986 8.4049776399999949 C
atom 2.4601351000000005 1.4206228200000000 15.1289597499999946 C
atom 4.9202781600000014 1.4206207999999998 15.1289597499999946 C
atom 7.3804212199999997 1.4206187799999999 15.1289597499999946 C
atom 3.6901943799999994 3.5511616599999987 15.1289597499999946 C
atom 6.1503374400000013 3.5511596399999994 15.1289597499999946 C
atom 8.6104804999999995 3.5511576199999983 15.1289597499999946 C
atom 4.9202536600000011 5.6817004999999989 15.1289597499999946 C
atom 7.3803967200000011 5.6816984799999997 15.1289597499999946 C
atom 9.8405397800000003 5.6816964599999986 15.1289597499999946 C
